#.\compute_packing.py
# GMT Sat Nov 16 01:42:40 2024
# 
519716
187400
48369
154577
164465
234737
181474
97187
43688
206762
179873
134851
138891
109141
8016
183590
73956
8782
237154
337725
4693
230602
377979
212925
112888
210073
160426
194058
507937
12830
177878
564598
20728
206924
107394
326699
405479
240387
2181
163221
60288
5930
347464
103917
586900
590036
170420
553028
125258
236920
201735
419060
126081
324352
578386
74072
72458
223037
110835
246165
388067
202544
999
129564
234957
517400
92204
20681
315859
76543
488979
645056
343518
355921
94591
350824
116590
138972
602184
88351
156835
14251
68208
63574
470453
469990
167736
2488
74344
21824
444678
29777
238797
81995
2374
63890
227174
471323
88864
196476
